%SETS
JOBS     = 1..6;
MACHINES = 1..3;
SPEED    = 1;

time               = array3d(JOBS,MACHINES,1..SPEED,[59, 48, 68, 49, 90, 96, 44, 81, 57, 61, 93, 16, 17, 11, 84, 80, 88, 98]);
energy             = array3d(JOBS,MACHINES,1..SPEED,[55, 61, 50, 61, 40, 38, 64, 44, 56, 54, 39, 85, 84, 89, 43, 44, 41, 37]);
precedence         = array2d(JOBS,MACHINES,[2,1,0,0,2,1,0,1,2,2,1,0,0,2,1,2,1,0]);